NAME: I14437-n35-k4
COMMENT : (Fake et al, No of trucks: 4, Optimal value: )
TYPE : CVRP
DIMENSION : 35
EDGE_WEIGHT_TYPE : EUC_2D
CAPACITY : 51
NODE_COORD_SECTION
1 953 233
2 478 369
3 259 360
4 218 910
5 355 907
6 494 714
7 704 357
8 995 761
9 454 679
10 286 150
11 944 756
12 677 376
13 69 517
14 423 981
15 165 163
16 511 534
17 916 520
18 764 954
19 127 151
20 690 944
21 173 455
22 934 766
23 37 781
24 946 657
25 618 413
26 738 475
27 406 139
28 297 609
29 119 152
30 75 61
31 167 922
32 690 667
33 798 792
34 117 970
35 244 993
DEMAND_SECTION
1 0
2 6
3 3
4 7
5 9
6 1
7 7
8 1
9 2
10 7
11 8
12 9
13 6
14 9
15 7
16 7
17 7
18 8
19 9
20 2
21 6
22 1
23 5
24 4
25 3
26 5
27 1
28 8
29 3
30 6
31 4
32 7
33 5
34 3
35 2
DEPOT_SECTION
 1
 -1
 EOF 